WARNING: for repeatability, setting FPU to use double precision
============================[ Problem Statistics ]=============================
|                                                                             |
|  Number of variables:           100                                         |
|  Number of clauses:             449                                         |
|  Parse time:                   0.00 s                                       |
|  Eliminated clauses:           0.00 Mb                                      |
|  Simplification time:          0.00 s                                       |
|                                                                             |
============================[ Search Statistics ]==============================
| Conflicts |          ORIGINAL         |          LEARNT          | Progress |
|           |    Vars  Clauses Literals |    Limit  Clauses Lit/Cl |          |
===============================================================================
|       100 |      99      448     1348 |      164      100      7 |  0.010 % |
===============================================================================
restarts              : 2
conflicts             : 178            (59136 /sec)
decisions             : 228            (0.00 % random) (75748 /sec)
propagations          : 4287           (1424252 /sec)
conflict literals     : 1137           (19.53 % deleted)
Memory used           : 13.00 MB
CPU time              : 0.00301 s

SATISFIABLE
